100 8
591 256
380 3
591 682
883 355
623 687
166 461
453 643
259 158
644 291
330 738
359 278
67 406
373 173
377 659
796 581
636 51
258 18
449 856
81 429
265 48
630 260
575 372
884 797
437 129
533 723
638 826
492 409
427 16
859 516
896 872
633 46
229 718
711 557
714 508
801 733
929 800
714 454
731 707
400 624
49 549
636 32
312 136
535 158
40 464
528 857
314 220
452 229
397 721
217 162
301 63
815 590
39 462
335 54
585 470
568 412
547 542
277 27
650 138
333 183
353 832
565 642
759 716
692 720
626 581
870 828
871 651
327 17
49 414
80 530
360 875
792 697
457 703
924 721
194 92
788 853
95 689
841 606
253 326
563 591
139 374
111 672
882 583
572 782
637 305
66 701
247 172
198 375
874 365
92 449
619 93
405 180
49 499
242 89
587 457
639 204
655 615
615 234
416 661
680 87
624 254
